unknown
(model
; cardinality of BoundSet is 2
(declare-sort BoundSet 0)
; rep: @uc_BoundSet_0
; rep: @uc_BoundSet_1
; cardinality of UnboundSet is 1
(declare-sort UnboundSet 0)
(declare-fun groundTerm_3 () UnboundSet)
(define-fun IsSweeping ((BOUND_VARIABLE_398 BoundSet)) Bool true)
(define-fun IsRed ((BOUND_VARIABLE_398 BoundSet)) Bool true)
(define-fun IsDancing ((BOUND_VARIABLE_398 BoundSet)) Bool false)
(define-fun IsWith ((BOUND_VARIABLE_414 BoundSet) (BOUND_VARIABLE_415 BoundSet)) Bool false)
)
sat
(model
; cardinality of BoundSet is 1
(declare-sort BoundSet 0)
; rep: @uc_BoundSet_0
; cardinality of UnboundSet is 1
(declare-sort UnboundSet 0)
(declare-fun groundTerm_5 () UnboundSet)
(define-fun IsSweeping ((BOUND_VARIABLE_439 BoundSet)) Bool true)
(define-fun IsRed ((BOUND_VARIABLE_439 BoundSet)) Bool true)
(define-fun IsDancing ((BOUND_VARIABLE_439 BoundSet)) Bool false)
(define-fun IsWith ((BOUND_VARIABLE_448 BoundSet) (BOUND_VARIABLE_449 BoundSet)) Bool true)
)
